     3    -2    93   113    10    10
    -3   -17    86   106    20    10
     5     2   299   319    20    10
   -10     2   251   271    20    10
    -1    -1   165   185    20    10
    -9    21    98   118    20    10
    -7     0    67    87    10    10
     2     4   346   366    20    10
    25   -10   288   308    10    10
   -18   -20   254   274    10    10
     6   -18    83   103    10    10
    -8    12   331   351    10    10
   -24    14   126   146    10    10
    -4    -1    99   119    20    10
    -6    13   205   225    20    10
    15    16
   -14    16
   -23    -1
    15   -18
    31     9
